NAME: mitra2008_25
COMMENT: 56
VEHICLE: 3
TIME: 1
DIMENSION: 9
CAPACITY: 1
DELIVERY_SECTION
0 0 0
1 1 0.25
2 1 0.05
3 2 0.25
4 2 0.1
5 2 0.05
6 3 0.25
7 3 0.05
8 4 0.25
9 4 0.1
10 4 0.05
11 5 0.1
12 5 0.1
13 6 0.25
14 6 0.25
15 7 0.25
16 7 0.05
17 8 0.1
18 8 0.1
PICKUP_SECTION
0 0 0
1 1 0.25
2 1 0.05
3 2 0.25
4 2 0.1
5 2 0.05
6 3 0.25
7 3 0.1
8 3 0.05
9 4 0.25
10 4 0.25
11 5 0.1
12 5 0.1
13 6 0.25
14 6 0.1
15 6 0.05
16 7 0.25
17 7 0.05
18 8 0.1
NODE_SECTION
DISTANCE_SECTION
2 7 6 8 6 9 2 7
8 5 8 7 11 1 7
6 3 12 3 7 14
4 12 9 4 13
14 6 7 15
14 8 3
10 16
8
DEPOT_SECTION
0
EOF